num_occupants = 20;
num_patients = 79;
horizon = 14;
num_rooms = 13;
oc_length_of_stay = [1, 6, 1, 3, 6, 2, 1, 8, 3, 2, 2, 5, 3, 1, 3, 6, 1, 6, 3, 1];
oc_gender = [2, 1, 2, 2, 2, 2, 2, 2, 2, 2, 2, 2, 2, 2, 2, 1, 2, 1, 2, 2];
oc_room = [9, 8, 3, 3, 6, 11, 2, 11, 2, 1, 12, 10, 2, 1, 2, 8, 6, 8, 4, 6];
length_of_stay = length_of_stay = [3, 6, 3, 4, 6, 3, 4, 5, 7, 3, 4, 7, 3, 3, 4, 4, 3, 4, 6, 2, 4, 3, 2, 3, 8, 4, 2,... ]; // array too long to display, dimensions: (79)

gender = gender = [2, 1, 2, 2, 2, 1, 2, 1, 1, 1, 1, 1, 2, 1, 1, 2, 2, 1, 1, 2, 2, 2, 2, 2, 2, 1, 1,... ]; // array too long to display, dimensions: (79)

max_incompatible = 5;
incompatible_rooms = incompatible_rooms = incompatible_rooms = incompatible_rooms = [|2, 6, 0, 0, 0 | 2, 0, 0, 0, 0 | 3, 6, 7, 0, 0 | 4, 0, 0, 0, 0 | 4, 6, 13, 0, 0 ... ]; // array too long to display, dimensions: (30)
 // array too long to display, dimensions: (317)

mandatory = mandatory = [true, false, false, false, false, true, true, fals... ]; // array too long to display, dimensions: (79)

surgery_duration = surgery_duration = [180, 120, 90, 60, 60, 90, 120, 120, 120, 120, 60, 90, 180, 120, 120, 90, 180, 24... ]; // array too long to display, dimensions: (79)

surgeon = surgeon = [1, 2, 2, 1, 1, 1, 3, 1, 3, 2, 2, 3, 3, 2, 3, 2, 2, 3, 3, 1, 3, 1, 2, 2, 1, 1, 2,... ]; // array too long to display, dimensions: (79)

num_surgeons = 3;
max_surgery = array2d(1..3, 0..13, max_surgery = [|0, 480, 0, 480, 360, 0, 0, 480, 480, 360, 0, 360, 0, 480 | 0, 0, 360, 480, 480,... ] // array too long to display, dimensions: (40)
);
release_day = release_day = [1, 4, 12, 1, 3, 4, 4, 7, 3, 7, 4, 3, 9, 2, 3, 3, 9, 4, 3, 1, 4, 1, 2, 3, 1, 1, 3... ]; // array too long to display, dimensions: (79)

due_day = due_day = [13, 14, 14, 14, 14, 9, 13, 14, 13, 14, 14, 8, 14, 11, 3, 14, 10, 14, 14, 14, 13,... ]; // array too long to display, dimensions: (79)

capacity = [4, 4, 2, 2, 3, 4, 4, 3, 4, 2, 2, 2, 4];
num_ot = 4;
max_ot = array2d(1..4, 0..13, max_ot = [|600, 600, 600, 600, 720, 0, 720, 600, 600, 720, 720, 720, 600, 0 | 720, 720, 60... ] // array too long to display, dimensions: (53)
);
weight_selection = 450;
weight_delay = 10;
